% long01
% START_DATE: 2010-01-01
% END_DATE: 2010-01-28
num_days = 28
skills = {Nurse, HeadNurse}
num_shifts = 6
shift_types = {E, L, D, N, DH, ZZ}
shift_skills = [{Nurse},{Nurse},{Nurse},{Nurse},{HeadNurse},{Nurse, HeadNurse}]
num_employees = 49
employee_contracts = [1, 1, 2, 2, 3, 3, 1, 1, 1, 1, 1, 1, 1, 1, 1, 1, 1, 1, 1, 1, 1, 1, 1, 1, 1, 1, 1, 1, 1, 2, 2, 2, 2, 2, 2, 2, 2, 3, 3, 3, 3, 3, 3, 3, 3, 3, 3, 3, 3]
employee_skills = [{Nurse, HeadNurse},{Nurse, HeadNurse},{Nurse, HeadNurse},{Nurse, HeadNurse},{Nurse, HeadNurse},{Nurse, HeadNurse},{Nurse},{Nurse},{Nurse},{Nurse},{Nurse},{Nurse},{Nurse},{Nurse},{Nurse},{Nurse},{Nurse},{Nurse},{Nurse},{Nurse},{Nurse},{Nurse},{Nurse},{Nurse},{Nurse},{Nurse},{Nurse},{Nurse},{Nurse},{Nurse},{Nurse},{Nurse},{Nurse},{Nurse},{Nurse},{Nurse},{Nurse},{Nurse},{Nurse},{Nurse},{Nurse},{Nurse},{Nurse},{Nurse},{Nurse},{Nurse},{Nurse},{Nurse},{Nurse}]
weekend_c1 = [2, 3, 9, 10, 16, 17, 23, 24]
weekend_c2 = [2, 3, 9, 10, 16, 17, 23, 24]
weekend_c3 = [2, 3, 9, 10, 16, 17, 23, 24]
max_num_assignments = [16, 12, 5]
min_num_assignments = [6, 6, 3]
delta0 = [
| 2, 9, 2, 2, 2, 2
| 3, 10, 3, 3, 3, 3
| 4, 11, 4, 4, 4, 4
| 5, 12, 5, 5, 5, 5
| 6, 13, 6, 6, 6, 6
| 7, 14, 7, 7, 7, 7
| 1, 8, 1, 1, 1, 1
| 2, 2, 0, 2, 2, 2
| 3, 3, 0, 3, 3, 3
| 4, 4, 0, 4, 4, 4
| 5, 5, 0, 5, 5, 5
| 6, 6, 0, 6, 6, 6
| 7, 7, 0, 7, 7, 7
| 1, 1, 0, 1, 1, 1
|] 
delta1 = [
| 2, 2, 9, 2, 2, 2
| 3, 3, 10, 3, 3, 3
| 4, 4, 11, 4, 4, 4
| 5, 5, 12, 5, 5, 5
| 6, 6, 13, 6, 6, 6
| 7, 7, 14, 7, 7, 7
| 1, 1, 8, 1, 1, 1
| 16, 2, 2, 2, 2, 2
| 17, 3, 3, 3, 3, 3
| 18, 4, 4, 4, 4, 4
| 19, 5, 5, 5, 5, 5
| 20, 6, 6, 6, 6, 6
| 21, 7, 7, 7, 7, 7
| 15, 1, 1, 1, 1, 1
| 2, 2, 0, 2, 2, 2
| 3, 3, 0, 3, 3, 3
| 4, 4, 0, 4, 4, 4
| 5, 5, 0, 5, 5, 5
| 6, 6, 0, 6, 6, 6
| 7, 7, 0, 7, 7, 7
| 1, 1, 0, 1, 1, 1
|] 
delta2 = [
| 2, 2, 2, 2, 2, 2
| 3, 3, 3, 3, 3, 3
| 4, 4, 4, 4, 4, 4
| 5, 5, 5, 5, 5, 5
| 6, 6, 6, 6, 6, 13
| 7, 7, 7, 7, 7, 7
| 1, 1, 1, 1, 1, 1
| 2, 2, 2, 2, 2, 2
| 3, 3, 3, 3, 3, 3
| 4, 4, 4, 4, 4, 4
| 5, 5, 5, 5, 5, 5
| 6, 6, 6, 6, 6, 6
| 21, 21, 21, 21, 21, 7
| 1, 1, 1, 1, 1, 1
| 2, 2, 2, 2, 2, 2
| 3, 3, 3, 3, 3, 3
| 4, 4, 4, 4, 4, 4
| 5, 5, 5, 5, 5, 5
| 6, 6, 6, 6, 6, 6
| 7, 7, 7, 7, 7, 7
| 0, 0, 0, 0, 0, 1
|] 
CoverRequirements = [
| 8, 8, 5, 6, 2
| 6, 6, 3, 4, 1
| 6, 6, 3, 4, 1
| 8, 8, 5, 6, 2
| 8, 8, 5, 6, 2
| 8, 8, 5, 6, 2
| 8, 8, 5, 6, 2
| 8, 8, 5, 6, 2
| 6, 6, 3, 4, 1
| 6, 6, 3, 4, 1
| 8, 8, 5, 6, 2
| 8, 8, 5, 6, 2
| 8, 8, 5, 6, 2
| 8, 8, 5, 6, 2
| 8, 8, 5, 6, 2
| 6, 6, 3, 4, 1
| 6, 6, 3, 4, 1
| 8, 8, 5, 6, 2
| 8, 8, 5, 6, 2
| 8, 8, 5, 6, 2
| 8, 8, 5, 6, 2
| 8, 8, 5, 6, 2
| 6, 6, 3, 4, 1
| 6, 6, 3, 4, 1
| 8, 8, 5, 6, 2
| 8, 8, 5, 6, 2
| 8, 8, 5, 6, 2
| 8, 8, 5, 6, 2
|] 
